1 of 1 MIP starts provided solutions.
MIP start 'm1' defined initial solution with objective 102133.0000.
Tried aggregator 1 time.
MIP Presolve eliminated 0 rows and 1 columns.
MIP Presolve modified 338400 coefficients.
Reduced MIP has 60100 rows, 30400 columns, and 9148545 nonzeros.
Reduced MIP has 30000 binaries, 0 generals, 0 SOSs, and 0 indicators.
Presolve time = 7.41 sec. (4599.26 ticks)
Probing time = 0.23 sec. (98.40 ticks)
Tried aggregator 1 time.
Reduced MIP has 60100 rows, 30400 columns, and 9148545 nonzeros.
Reduced MIP has 30000 binaries, 0 generals, 0 SOSs, and 0 indicators.
Presolve time = 4.74 sec. (2264.65 ticks)
Probing time = 0.23 sec. (98.38 ticks)
Clique table members: 100.
MIP emphasis: balance optimality and feasibility.
MIP search method: dynamic search.
Parallel mode: none, using 1 thread.
Root relaxation solution time = 2.01 sec. (979.53 ticks)

        Nodes                                         Cuts/
   Node  Left     Objective  IInf  Best Integer    Best Bound    ItCnt     Gap

*     0+    0                       102133.0000   2.30429e+07      505     --- 
      0     0   102158.9430    34   102133.0000   102158.9430      505    0.03%
      0     0   102142.9893    16   102133.0000      Cuts: 22      534    0.01%

Implied bound cuts applied:  7
Flow cuts applied:  8
Mixed integer rounding cuts applied:  3
Gomory fractional cuts applied:  3

Root node processing (before b&c):
  Real time             =   27.94 sec. (14809.34 ticks)
Sequential b&c:
  Real time             =    0.00 sec. (0.00 ticks)
                          ------------
Total (root+branch&cut) =   27.94 sec. (14809.34 ticks)
